db/data/11662244993424048150191972519424000.z3.out
sat
-------------------
8.345297182
